20
39
7
18
60
64
15
74
64
45
0 8
0 14
0 15
1 6
1 15
2 11
2 12
2 13
2 14
2 15
2 18
3 7
3 9
3 15
3 17
4 6
4 9
4 17
5 6
5 11
5 15
5 18
6 7
6 10
6 11
8 9
8 10
8 19
9 12
10 12
10 16
11 19
12 17
12 18
13 14
14 19
15 17
16 19
18 19
0 13 6
4 3 10
11 15 19
17 5 12
1 8 18
14 7 9
16 2
